4054 4643
3802 9324
6410 6188
1819 9385
6651 8804
7496 9558
1283 5402
2017 2414
7824 2888
5972 9391
779 8227
5104 1603
1702 4458
346 721
6795 8592
268 7452
1536 8376
2400 253
6630 360
3896 6127
9671 187
5932 1855
1071 5094
5671 5826
1635 9962
4419 8513
8884 4139
9027 356
3773 8417
1461 9343
5338 390
6283 5133
6915 9913
2476 9394
5014 8338
6723 6997
8751 4659
4014 8586
6313 5094
3257 9428
2793 5934
3070 9861
705 6534
5992 3275
9529 166
4242 9310
3645 2910
5960 8667
7207 4495
452 5023
